(set-logic ALL)
(declare-const GEN1 Int)
(get-model)
(declare-const BAV2 Bool)
(declare-fun P (Int) Bool)
(declare-fun R (Int) Bool)
(assert (forall ((x Int)) (=> (R x) (not (P x)))))
(assert (= BAV2 (forall ((x Int)) (=> (R x) (not (P x))))))
(check-sat)
(get-model)
(assert (R GEN1))
(check-sat)
(assert (forall ((x Int)) (P x)))
(check-sat)
(push 1)
(check-sat)